cases/matpower/case5_gap.m
ipopt
ACP
[info | PowerModels]: removing 1 cost terms from generator 4: [-4000.0, 0.0]
[info | PowerModels]: removing 1 cost terms from generator 1: [-1400.0, 0.0]
[info | PowerModels]: removing 1 cost terms from generator 5: [-1000.0, 0.0]
[info | PowerModels]: removing 1 cost terms from generator 2: [-1500.0, 0.0]
[info | PowerModels]: removing 1 cost terms from generator 3: [-3000.0, 0.0]

******************************************************************************
This program contains Ipopt, a library for large-scale nonlinear optimization.
 Ipopt is released as open source code under the Eclipse Public License (EPL).
         For more information visit http://projects.coin-or.org/Ipopt
******************************************************************************

This is Ipopt version 3.13.2, running with linear solver mumps.
NOTE: Other linear solvers might be more efficient (see Ipopt documentation).

Number of nonzeros in equality constraint Jacobian...:       36
Number of nonzeros in inequality constraint Jacobian.:       24
Number of nonzeros in Lagrangian Hessian.............:        0

Total number of variables............................:       16
                     variables with only lower bounds:        0
                variables with lower and upper bounds:       11
                     variables with only upper bounds:        0
Total number of equality constraints.................:       12
Total number of inequality constraints...............:       12
        inequality constraints with only lower bounds:        6
   inequality constraints with lower and upper bounds:        0
        inequality constraints with only upper bounds:        6

iter    objective    inf_pr   inf_du lg(mu)  ||d||  lg(rg) alpha_du alpha_pr  ls
   0 -1.0059989e+02 3.99e+00 3.51e+01  -1.0 0.00e+00    -  0.00e+00 0.00e+00   0
   1 -1.1091095e+04 2.18e+00 1.36e+02  -1.0 2.68e+00    -  3.83e-03 4.54e-01f  1
   2 -1.4284126e+04 2.13e+00 1.32e+02  -1.0 3.67e+01    -  4.68e-02 2.39e-02f  1
   3 -1.5231402e+04 2.09e+00 1.29e+02  -1.0 2.49e+01    -  6.89e-03 1.95e-02f  1
   4 -1.5269528e+04 2.08e+00 6.39e+02  -1.0 6.43e+00    -  1.19e-01 2.15e-03f  1
   5 -1.6154358e+04 1.97e+00 5.79e+02  -1.0 7.00e+00    -  4.75e-02 5.50e-02f  1
   6 -2.1766616e+04 1.15e+00 6.23e+02  -1.0 4.29e+00    -  1.09e-01 4.13e-01f  1
   7 -2.2777707e+04 1.01e+00 5.15e+02  -1.0 2.19e+00    -  2.68e-01 1.27e-01f  1
   8 -2.5485122e+04 5.99e-01 3.68e+02  -1.0 1.81e+00    -  2.40e-01 4.06e-01f  1
   9 -2.5521316e+04 5.93e-01 4.39e+02  -1.0 1.50e+00    -  2.46e-02 9.38e-03f  1
iter    objective    inf_pr   inf_du lg(mu)  ||d||  lg(rg) alpha_du alpha_pr  ls
  10 -2.5639608e+04 5.72e-01 1.61e+03  -1.0 3.67e+00    -  3.06e-01 3.52e-02f  1
  11 -2.5689979e+04 5.61e-01 3.11e+02  -1.0 1.23e+00    -  6.05e-03 2.04e-02f  1
  12 -2.6317852e+04 3.91e-01 2.21e+02  -1.0 1.26e+00    -  7.20e-02 3.03e-01f  1
  13 -2.6677196e+04 2.87e-01 1.64e+02  -1.0 1.02e+00    -  1.21e-01 2.66e-01f  1
  14 -2.6690599e+04 2.83e-01 1.61e+02  -1.0 4.39e-01    -  1.16e-01 1.31e-02h  1
  15 -2.7389066e+04 4.44e-16 1.72e+02  -1.0 7.22e-01    -  3.29e-01 1.00e+00f  1
  16 -2.7395595e+04 8.88e-16 1.00e-06  -1.0 1.22e-02    -  1.00e+00 1.00e+00f  1
  17 -2.7409684e+04 4.44e-16 2.83e-08  -2.5 1.76e-02    -  1.00e+00 1.00e+00f  1
  18 -2.7409976e+04 4.44e-16 1.50e-09  -3.8 3.84e-04    -  1.00e+00 1.00e+00f  1
  19 -2.7410000e+04 4.44e-16 1.84e-11  -5.7 3.12e-05    -  1.00e+00 1.00e+00f  1
iter    objective    inf_pr   inf_du lg(mu)  ||d||  lg(rg) alpha_du alpha_pr  ls
  20 -2.7410000e+04 2.22e-16 2.51e-14  -8.6 3.93e-07    -  1.00e+00 1.00e+00f  1

Number of Iterations....: 20

                                   (scaled)                 (unscaled)
Objective...............:  -6.8525000440247788e+02   -2.7410000176099114e+04
Dual infeasibility......:   2.5059056392440215e-14    1.0023622556976086e-12
Constraint violation....:   2.2204460492503131e-16    2.2204460492503131e-16
Complementarity.........:   2.5072057234894792e-09    1.0028822893957917e-07
Overall NLP error.......:   2.5072057234894792e-09    1.0028822893957917e-07


Number of objective function evaluations             = 21
Number of objective gradient evaluations             = 21
Number of equality constraint evaluations            = 21
Number of inequality constraint evaluations          = 21
Number of equality constraint Jacobian evaluations   = 1
Number of inequality constraint Jacobian evaluations = 1
Number of Lagrangian Hessian evaluations             = 1
Total CPU secs in IPOPT (w/o function evaluations)   =      0.293
Total CPU secs in NLP function evaluations           =      0.212

EXIT: Optimal Solution Found.
This is Ipopt version 3.13.2, running with linear solver mumps.
NOTE: Other linear solvers might be more efficient (see Ipopt documentation).

Number of nonzeros in equality constraint Jacobian...:      155
Number of nonzeros in inequality constraint Jacobian.:       48
Number of nonzeros in Lagrangian Hessian.............:      264

Total number of variables............................:       44
                     variables with only lower bounds:        0
                variables with lower and upper bounds:       39
                     variables with only upper bounds:        0
Total number of equality constraints.................:       35
Total number of inequality constraints...............:       24
        inequality constraints with only lower bounds:        6
   inequality constraints with lower and upper bounds:        0
        inequality constraints with only upper bounds:       18

iter    objective    inf_pr   inf_du lg(mu)  ||d||  lg(rg) alpha_du alpha_pr  ls
   0 -1.0059989e+02 3.99e+00 2.88e+01  -1.0 0.00e+00    -  0.00e+00 0.00e+00   0
   1 -1.1265584e+04 2.16e+00 1.34e+02  -1.0 2.69e+00    -  3.80e-03 4.58e-01f  1
   2 -1.4011697e+04 2.08e+00 1.28e+02  -1.0 1.92e+01    -  7.91e-02 3.91e-02f  1
   3 -1.5870070e+04 1.96e+00 1.18e+02  -1.0 1.42e+01    -  9.81e-02 5.85e-02f  1
   4 -1.6282254e+04 1.92e+00 1.11e+02  -1.0 1.12e+01    -  1.67e-01 1.66e-02f  1
   5 -2.1800199e+04 1.17e+00 3.44e+02  -1.0 4.61e+00    -  3.28e-01 3.93e-01f  1
   6 -2.3785753e+04 9.08e-01 6.91e+02  -1.0 6.25e+00    -  7.27e-01 2.22e-01f  1
   7 -2.4771928e+04 7.68e-01 5.30e+02  -1.0 3.49e+00    -  2.16e-01 1.55e-01f  1
   8 -2.5233893e+04 6.85e-01 7.50e+02  -1.0 4.48e+00    -  8.31e-02 1.08e-01f  1
   9 -2.6187870e+04 4.30e-01 2.86e+03  -1.0 6.88e+00    -  5.65e-02 3.72e-01f  1
iter    objective    inf_pr   inf_du lg(mu)  ||d||  lg(rg) alpha_du alpha_pr  ls
  10 -2.6203287e+04 4.26e-01 2.54e+03  -1.0 9.11e+00    -  8.10e-02 9.35e-03h  1
  11 -2.6384114e+04 3.77e-01 1.98e+03  -1.0 8.61e+00    -  1.98e-01 1.16e-01f  1
  12 -2.6691290e+04 2.87e-01 1.63e+03  -1.0 1.65e+00    -  1.03e-01 2.37e-01f  1
  13 -2.6703727e+04 2.84e-01 1.58e+03  -1.0 1.86e+00    -  5.33e-02 1.30e-02h  1
  14 -2.7213253e+04 8.94e-02 2.02e+03  -1.0 7.44e+00    -  8.78e-02 6.85e-01f  1
  15 -2.7400725e+04 4.82e-02 2.07e+02  -1.0 3.67e+00    -  8.50e-01 9.07e-01f  1
  16 -2.7426396e+04 4.82e-03 2.75e+01  -1.0 1.60e+00    -  3.90e-01 1.00e+00f  1
  17 -2.7424681e+04 1.40e-02 8.04e+00  -1.0 7.73e-01    -  7.10e-01 1.00e+00f  1
  18 -2.7415182e+04 2.50e-04 9.81e-02  -1.0 1.61e+00    -  1.00e+00 1.00e+00H  1
  19 -2.7442395e+04 9.39e-02 1.01e+00  -2.5 1.01e+03  -4.0 4.45e-03 4.34e-03f  1
iter    objective    inf_pr   inf_du lg(mu)  ||d||  lg(rg) alpha_du alpha_pr  ls
  20 -2.7473067e+04 4.55e-02 1.10e+01  -2.5 5.83e+00    -  7.26e-01 5.33e-01h  1
  21 -2.7490787e+04 1.41e-02 6.32e+00  -2.5 2.35e+00    -  1.00e+00 7.04e-01h  1
  22 -2.7496711e+04 2.94e-05 2.90e-02  -2.5 4.91e-01    -  1.00e+00 1.00e+00h  1
  23 -2.7496674e+04 4.89e-07 9.88e-05  -2.5 1.93e-03    -  1.00e+00 1.00e+00h  1
  24 -2.7497680e+04 1.03e-05 1.60e-03  -3.8 7.83e-02    -  1.00e+00 1.00e+00f  1
  25 -2.7497660e+04 9.49e-09 8.94e-07  -3.8 2.85e-03    -  1.00e+00 1.00e+00h  1
  26 -2.7497714e+04 2.78e-08 4.90e-06  -5.7 4.03e-03    -  1.00e+00 1.00e+00h  1
  27 -2.7497714e+04 3.08e-12 7.27e-10  -8.6 4.14e-05    -  1.00e+00 1.00e+00h  1

Number of Iterations....: 27

                                   (scaled)                 (unscaled)
Objective...............:  -6.8744285571487137e+02   -2.7497714228594854e+04
Dual infeasibility......:   7.2695979905267397e-10    2.9078391962106959e-08
Constraint violation....:   3.0810909379397344e-12    3.0810909379397344e-12
Complementarity.........:   2.5568166820946297e-09    1.0227266728378518e-07
Overall NLP error.......:   2.5568166820946297e-09    1.0227266728378518e-07


Number of objective function evaluations             = 29
Number of objective gradient evaluations             = 28
Number of equality constraint evaluations            = 29
Number of inequality constraint evaluations          = 29
Number of equality constraint Jacobian evaluations   = 28
Number of inequality constraint Jacobian evaluations = 28
Number of Lagrangian Hessian evaluations             = 27
Total CPU secs in IPOPT (w/o function evaluations)   =      1.082
Total CPU secs in NLP function evaluations           =      2.136

EXIT: Optimal Solution Found.
Time to Solution........:3.2736129760742188
